20
2 0 15
3 0 14
3 1 18
5 0 14
5 1 8
6 0 3
6 1 2
7 0 15
7 1 19
7 3 13
8 3 16
8 4 6
8 6 13
8 7 7
9 0 5
9 3 11
9 6 6
9 8 6
10 1 11
10 4 10
10 5 4
10 7 15
11 0 17
11 1 17
11 2 2
11 3 5
11 6 12
11 8 9
12 1 14
12 2 12
12 3 1
12 11 12
13 2 4
13 3 15
13 4 9
13 5 15
13 6 4
13 11 4
14 0 8
14 1 6
14 4 13
14 6 16
14 12 16
15 6 17
15 8 3
15 9 11
15 11 15
15 13 15
16 2 8
16 4 12
16 5 6
16 6 16
16 7 18
16 8 12
16 10 14
16 14 15
17 1 13
17 4 5
17 7 10
17 8 20
17 11 3
17 13 14
17 14 6
18 2 1
18 3 7
18 7 3
18 8 6
18 10 9
18 14 18
19 0 8
19 2 5
19 3 4
19 6 2
19 7 15
19 8 1
19 9 19
19 11 15
19 12 10
19 14 12
19 15 8
19 16 15
19 18 16
